p tdp 16 80
1 3
1 4
1 5
1 6
1 7
1 8
1 10
1 11
1 13
1 15
1 16
2 3
2 4
2 5
2 6
2 7
2 8
2 9
2 10
2 12
2 13
2 15
2 16
3 4
3 6
3 7
3 11
3 12
3 14
3 15
4 5
4 6
4 7
4 8
4 10
4 11
4 12
4 15
4 16
5 6
5 8
5 9
5 10
5 12
5 13
5 14
5 15
5 16
6 7
6 8
6 9
6 10
6 11
6 12
6 13
6 15
6 16
7 8
7 9
7 11
7 14
7 15
8 11
9 10
9 12
9 14
9 15
10 11
10 12
10 13
10 14
10 15
11 12
11 14
11 16
12 14
12 15
13 14
13 15
15 16
